NAME: instance_111
TYPE: TSP
DIMENSION: 20
EDGE_WEIGHT_TYPE: EUC_2D
NODE_COORD_SECTION
0 48.13 74.37
1 10.66 27.90
2 94.75 54.28
3 41.21 79.67
4 66.66 18.73
5 54.36 19.04
6 87.69 83.28
7 6.34 30.42
8 88.06 55.04
9 96.10 32.18
10 30.90 83.04
11 39.34 29.95
12 1.80 20.70
13 12.23 64.68
14 99.68 35.68
15 46.88 50.66
16 3.68 60.41
17 12.97 55.24
18 72.61 47.97
19 41.03 4.27
EOF
